50
90.0
0 49 0.06 8.36
1 48 0.06 8.34
2 47 0.06 12.01
3 46 0.07 11.3
4 45 0.07 6.69
5 44 7.07 7.36
6 43 8.82 6.76
7 42 0.07 10.98
8 41 0.06 9.99
9 40 9.7 7.41
10 39 7.52 7.35
11 38 7.78 7.96
12 37 6.47 8.8
13 36 0.06 10.11
14 35 0.07 7.67
15 34 0.06 7.54
16 33 0.06 6.67
17 32 5.77 7.1
18 31 6.93 10.46
19 30 0.06 5.77
20 29 3.77 9.45
21 28 0.05 8.24
22 27 0.06 9.26
23 26 1.77 10.02
24 25 0.06 7.21
25 24 0.06 12.25
26 23 0.06 9.47
27 22 0.05 5.97
28 21 0.06 8.02
29 20 0.07 10.87
30 19 0.06 12.69
31 18 0.06 10.35
32 17 0.07 8.96
33 16 0.05 5.87
34 15 0.07 5.58
35 14 0.06 9.4
36 13 4.89 8.48
37 12 0.06 5.4
38 11 0.08 7.71
39 10 0.06 5.67
40 9 0.06 6.5
41 8 1.53 5.18
42 7 0.07 7.79
43 6 4.69 9.33
44 5 0.09 8.27
45 4 0.05 6.91
46 3 0.05 5.91
47 2 0.03 8.57
48 1 0.09 20.58
